1959771
0 11 10465
11 31 4813
31 55 1427
55 23 19186
23 60 5437
60 37 60774
37 66 15200
66 6 19183
6 42 52950
42 33 66399
33 45 36286
45 25 87405
25 54 61621
54 10 53067
10 65 13370
65 63 49309
63 24 33878
24 29 1249
29 28 10950
28 5 14521
5 40 10602
40 2 26464
2 20 17216
20 62 32196
62 15 14689
15 58 10880
58 27 24825
27 49 10810
49 21 111178
21 30 39447
30 51 71029
51 32 101509
32 13 124360
13 43 62420
43 9 75759
9 17 28652
17 56 27906
56 36 182471
36 52 6554
52 34 19869
34 50 8926
50 38 11004
38 61 8740
61 67 47064
67 35 44808
35 7 11459
7 14 6874
14 8 8460
8 57 1777
57 16 6718
16 26 1445
26 44 8214
44 1 15587
1 47 7938
47 3 7248
3 19 4440
19 64 13332
64 12 18316
12 46 9114
46 53 18520
53 18 26950
18 48 8895
48 22 4353
22 59 7498
59 4 7979
4 39 3130
39 41 9381
41 0 15275
